NAME          DCAP_3_4_2_300_SS299
ROWS
 N  OBJ
 L  CON1
 L  CON2
 L  CON3
 L  CON4
 L  CON5
 L  CON6
 L  CON7
 L  CON8
 L  CON9
 L  CON10
 L  CON11
 L  CON12
 E  CON13
 E  CON14
 E  CON15
 E  CON16
 E  CON17
 E  CON18
 E  CON19
 E  CON20
COLUMNS
    x[1,1]    OBJ       6.180167      CON1      1.000000    
    x[1,1]    CON7      -1.000000     CON8      -1.000000   
    x[1,2]    OBJ       5.039546      CON2      1.000000    
    x[1,2]    CON8      -1.000000   
    x[2,1]    OBJ       6.732585      CON3      1.000000    
    x[2,1]    CON9      -1.000000     CON10     -1.000000   
    x[2,2]    OBJ       7.443064      CON4      1.000000    
    x[2,2]    CON10     -1.000000   
    x[3,1]    OBJ       6.563535      CON5      1.000000    
    x[3,1]    CON11     -1.000000     CON12     -1.000000   
    x[3,2]    OBJ       6.054841      CON6      1.000000    
    x[3,2]    CON12     -1.000000   
    MARKER    'MARKER'                'INTORG'
    u[1,1]    OBJ       48.076654     CON1      -1.000000   
    u[1,2]    OBJ       49.466655     CON2      -1.000000   
    u[2,1]    OBJ       49.996186     CON3      -1.000000   
    u[2,2]    OBJ       32.230043     CON4      -1.000000   
    u[3,1]    OBJ       20.066487     CON5      -1.000000   
    u[3,2]    OBJ       27.484319     CON6      -1.000000   
    y[1,1,1]  OBJ       7.004932      CON7      1.066303    
    y[1,1,1]  CON13     1.000000    
    y[1,1,2]  OBJ       7.697549      CON8      1.217100    
    y[1,1,2]  CON14     1.000000    
    y[1,2,1]  OBJ       8.955182      CON7      0.615554    
    y[1,2,1]  CON15     1.000000    
    y[1,2,2]  OBJ       5.395761      CON8      1.246780    
    y[1,2,2]  CON16     1.000000    
    y[1,3,1]  OBJ       9.663145      CON7      1.353946    
    y[1,3,1]  CON17     1.000000    
    y[1,3,2]  OBJ       8.863392      CON8      0.920132    
    y[1,3,2]  CON18     1.000000    
    y[1,4,1]  OBJ       8.413486      CON7      1.106369    
    y[1,4,1]  CON19     1.000000    
    y[1,4,2]  OBJ       9.249032      CON8      0.694604    
    y[1,4,2]  CON20     1.000000    
    y[2,1,1]  OBJ       6.262144      CON9      1.066303    
    y[2,1,1]  CON13     1.000000    
    y[2,1,2]  OBJ       9.537878      CON10     1.217100    
    y[2,1,2]  CON14     1.000000    
    y[2,2,1]  OBJ       5.056816      CON9      0.615554    
    y[2,2,1]  CON15     1.000000    
    y[2,2,2]  OBJ       6.945108      CON10     1.246780    
    y[2,2,2]  CON16     1.000000    
    y[2,3,1]  OBJ       9.959885      CON9      1.353946    
    y[2,3,1]  CON17     1.000000    
    y[2,3,2]  OBJ       6.329886      CON10     0.920132    
    y[2,3,2]  CON18     1.000000    
    y[2,4,1]  OBJ       6.660947      CON9      1.106369    
    y[2,4,1]  CON19     1.000000    
    y[2,4,2]  OBJ       6.679997      CON10     0.694604    
    y[2,4,2]  CON20     1.000000    
    y[3,1,1]  OBJ       5.342535      CON11     1.066303    
    y[3,1,1]  CON13     1.000000    
    y[3,1,2]  OBJ       7.746507      CON12     1.217100    
    y[3,1,2]  CON14     1.000000    
    y[3,2,1]  OBJ       7.565119      CON11     0.615554    
    y[3,2,1]  CON15     1.000000    
    y[3,2,2]  OBJ       8.547993      CON12     1.246780    
    y[3,2,2]  CON16     1.000000    
    y[3,3,1]  OBJ       9.438213      CON11     1.353946    
    y[3,3,1]  CON17     1.000000    
    y[3,3,2]  OBJ       7.684946      CON12     0.920132    
    y[3,3,2]  CON18     1.000000    
    y[3,4,1]  OBJ       9.607923      CON11     1.106369    
    y[3,4,1]  CON19     1.000000    
    y[3,4,2]  OBJ       6.991193      CON12     0.694604    
    y[3,4,2]  CON20     1.000000    
    z[1,1]    OBJ       583.796930    CON13     1.000000    
    z[1,2]    OBJ       745.318820    CON14     1.000000    
    z[2,1]    OBJ       818.664847    CON15     1.000000    
    z[2,2]    OBJ       797.151946    CON16     1.000000    
    z[3,1]    OBJ       918.577315    CON17     1.000000    
    z[3,2]    OBJ       673.345384    CON18     1.000000    
    z[4,1]    OBJ       681.791534    CON19     1.000000    
    z[4,2]    OBJ       861.614837    CON20     1.000000    
    MARKER    'MARKER'                 'INTEND'
RHS
    RHS       CON1      -0.000000     CON2      -0.000000   
    RHS       CON3      -0.000000     CON4      -0.000000   
    RHS       CON5      -0.000000     CON6      -0.000000   
    RHS       CON7      -0.000000     CON8      -0.000000   
    RHS       CON9      -0.000000     CON10     -0.000000   
    RHS       CON11     -0.000000     CON12     -0.000000   
    RHS       CON13     1.000000      CON14     1.000000    
    RHS       CON15     1.000000      CON16     1.000000    
    RHS       CON17     1.000000      CON18     1.000000    
    RHS       CON19     1.000000      CON20     1.000000    
BOUNDS
 BV BOUND     u[1,1]  
 BV BOUND     u[1,2]  
 BV BOUND     u[2,1]  
 BV BOUND     u[2,2]  
 BV BOUND     u[3,1]  
 BV BOUND     u[3,2]  
 BV BOUND     y[1,1,1]
 BV BOUND     y[1,1,2]
 BV BOUND     y[1,2,1]
 BV BOUND     y[1,2,2]
 BV BOUND     y[1,3,1]
 BV BOUND     y[1,3,2]
 BV BOUND     y[1,4,1]
 BV BOUND     y[1,4,2]
 BV BOUND     y[2,1,1]
 BV BOUND     y[2,1,2]
 BV BOUND     y[2,2,1]
 BV BOUND     y[2,2,2]
 BV BOUND     y[2,3,1]
 BV BOUND     y[2,3,2]
 BV BOUND     y[2,4,1]
 BV BOUND     y[2,4,2]
 BV BOUND     y[3,1,1]
 BV BOUND     y[3,1,2]
 BV BOUND     y[3,2,1]
 BV BOUND     y[3,2,2]
 BV BOUND     y[3,3,1]
 BV BOUND     y[3,3,2]
 BV BOUND     y[3,4,1]
 BV BOUND     y[3,4,2]
 BV BOUND     z[1,1]  
 BV BOUND     z[1,2]  
 BV BOUND     z[2,1]  
 BV BOUND     z[2,2]  
 BV BOUND     z[3,1]  
 BV BOUND     z[3,2]  
 BV BOUND     z[4,1]  
 BV BOUND     z[4,2]  
ENDATA
